c CNF file corresponding to a (partial) station packing problem.
p cnf 5066 229
1 2 3 4 5 6 7 8 9 10 11 12 13 14 0
-1 -2 0
-1 -3 0
-1 -4 0
-1 -5 0
-1 -6 0
-1 -7 0
-1 -8 0
-1 -9 0
-1 -10 0
-1 -11 0
-1 -12 0
-1 -13 0
-1 -14 0
-2 -3 0
-2 -4 0
-2 -5 0
-2 -6 0
-2 -7 0
-2 -8 0
-2 -9 0
-2 -10 0
-2 -11 0
-2 -12 0
-2 -13 0
-2 -14 0
-3 -4 0
-3 -5 0
-3 -6 0
-3 -7 0
-3 -8 0
-3 -9 0
-3 -10 0
-3 -11 0
-3 -12 0
-3 -13 0
-3 -14 0
-4 -5 0
-4 -6 0
-4 -7 0
-4 -8 0
-4 -9 0
-4 -10 0
-4 -11 0
-4 -12 0
-4 -13 0
-4 -14 0
-5 -6 0
-5 -7 0
-5 -8 0
-5 -9 0
-5 -10 0
-5 -11 0
-5 -12 0
-5 -13 0
-5 -14 0
-6 -7 0
-6 -8 0
-6 -9 0
-6 -10 0
-6 -11 0
-6 -12 0
-6 -13 0
-6 -14 0
-7 -8 0
-7 -9 0
-7 -10 0
-7 -11 0
-7 -12 0
-7 -13 0
-7 -14 0
-8 -9 0
-8 -10 0
-8 -11 0
-8 -12 0
-8 -13 0
-8 -14 0
-9 -10 0
-9 -11 0
-9 -12 0
-9 -13 0
-9 -14 0
-10 -11 0
-10 -12 0
-10 -13 0
-10 -14 0
-11 -12 0
-11 -13 0
-11 -14 0
-12 -13 0
-12 -14 0
-13 -14 0
5050 5051 5052 5053 5054 5055 5056 5057 5058 5059 5060 5061 5062 5063 5064 5065 5066 0
-5050 -5051 0
-5050 -5052 0
-5050 -5053 0
-5050 -5054 0
-5050 -5055 0
-5050 -5056 0
-5050 -5057 0
-5050 -5058 0
-5050 -5059 0
-5050 -5060 0
-5050 -5061 0
-5050 -5062 0
-5050 -5063 0
-5050 -5064 0
-5050 -5065 0
-5050 -5066 0
-5051 -5052 0
-5051 -5053 0
-5051 -5054 0
-5051 -5055 0
-5051 -5056 0
-5051 -5057 0
-5051 -5058 0
-5051 -5059 0
-5051 -5060 0
-5051 -5061 0
-5051 -5062 0
-5051 -5063 0
-5051 -5064 0
-5051 -5065 0
-5051 -5066 0
-5052 -5053 0
-5052 -5054 0
-5052 -5055 0
-5052 -5056 0
-5052 -5057 0
-5052 -5058 0
-5052 -5059 0
-5052 -5060 0
-5052 -5061 0
-5052 -5062 0
-5052 -5063 0
-5052 -5064 0
-5052 -5065 0
-5052 -5066 0
-5053 -5054 0
-5053 -5055 0
-5053 -5056 0
-5053 -5057 0
-5053 -5058 0
-5053 -5059 0
-5053 -5060 0
-5053 -5061 0
-5053 -5062 0
-5053 -5063 0
-5053 -5064 0
-5053 -5065 0
-5053 -5066 0
-5054 -5055 0
-5054 -5056 0
-5054 -5057 0
-5054 -5058 0
-5054 -5059 0
-5054 -5060 0
-5054 -5061 0
-5054 -5062 0
-5054 -5063 0
-5054 -5064 0
-5054 -5065 0
-5054 -5066 0
-5055 -5056 0
-5055 -5057 0
-5055 -5058 0
-5055 -5059 0
-5055 -5060 0
-5055 -5061 0
-5055 -5062 0
-5055 -5063 0
-5055 -5064 0
-5055 -5065 0
-5055 -5066 0
-5056 -5057 0
-5056 -5058 0
-5056 -5059 0
-5056 -5060 0
-5056 -5061 0
-5056 -5062 0
-5056 -5063 0
-5056 -5064 0
-5056 -5065 0
-5056 -5066 0
-5057 -5058 0
-5057 -5059 0
-5057 -5060 0
-5057 -5061 0
-5057 -5062 0
-5057 -5063 0
-5057 -5064 0
-5057 -5065 0
-5057 -5066 0
-5058 -5059 0
-5058 -5060 0
-5058 -5061 0
-5058 -5062 0
-5058 -5063 0
-5058 -5064 0
-5058 -5065 0
-5058 -5066 0
-5059 -5060 0
-5059 -5061 0
-5059 -5062 0
-5059 -5063 0
-5059 -5064 0
-5059 -5065 0
-5059 -5066 0
-5060 -5061 0
-5060 -5062 0
-5060 -5063 0
-5060 -5064 0
-5060 -5065 0
-5060 -5066 0
-5061 -5062 0
-5061 -5063 0
-5061 -5064 0
-5061 -5065 0
-5061 -5066 0
-5062 -5063 0
-5062 -5064 0
-5062 -5065 0
-5062 -5066 0
-5063 -5064 0
-5063 -5065 0
-5063 -5066 0
-5064 -5065 0
-5064 -5066 0
-5065 -5066 0
